/*********************************************
 * OPL 12.6.0.0 Data
 * Author: Adrian Rodriguez Bazaga, Pau Rodriguez Esmerats
 * Creation Date: 06/12/2017 at 23:03:05
 *********************************************/

nNurses=257;
maxConsec=2;
maxPresence=7;
maxHours=5;
minHours=1;
hours=24;
demand= [35 40 54 60 40 54 60 42 43 29 3 5 4 5 4 3 3 1 1 0 26 75 49 38  ];
